100 153360
85 62 6 96 79 20 42 21 76 4 53 47 11 32 100 40 84 87 19 60 37 46 44 16 78 30 12 86 3 1 80 17 69 25 50 49 24 89 73 67 54 82 97 10 95 66 51 58 59 99 94 72 68 63 41 35 92 93 52 90 43 26 56 2 98 38 77 28 81 36 5 45 9 48 55 27 8 88 18 22 71 29 39 65 64 14 33 23 91 74 7 31 15 70 83 13 57 61 75 34 
